<instance format="XCSP3" type="CSP">
  <variables>
    <array id="p" note="p[i][j] is one of the position of the jth value of the ith 4-combination" size="[15][16]"> 0..20 </array>
    <array id="v" note="v[i][j] is the jth value of the ith 4-combination" size="[15][21]"> 0..15 </array>
  </variables>
  <constraints>
    <group note="all values must be present in each 4-combination">
      <allDifferent> %... </allDifferent>
      <args> p[0][] </args>
      <args> p[1][] </args>
      <args> p[2][] </args>
      <args> p[3][] </args>
      <args> p[4][] </args>
      <args> p[5][] </args>
      <args> p[6][] </args>
      <args> p[7][] </args>
      <args> p[8][] </args>
      <args> p[9][] </args>
      <args> p[10][] </args>
      <args> p[11][] </args>
      <args> p[12][] </args>
      <args> p[13][] </args>
      <args> p[14][] </args>
    </group>
    <group>
      <element>
        <list> v[0][] </list>
        <index> %0 </index>
        <value> %1 </value>
      </element>
      <args> p[0][0] 0 </args>
      <args> p[0][1] 1 </args>
      <args> p[0][2] 2 </args>
      <args> p[0][3] 3 </args>
      <args> p[0][4] 4 </args>
      <args> p[0][5] 5 </args>
      <args> p[0][6] 6 </args>
      <args> p[0][7] 7 </args>
      <args> p[0][8] 8 </args>
      <args> p[0][9] 9 </args>
      <args> p[0][10] 10 </args>
      <args> p[0][11] 11 </args>
      <args> p[0][12] 12 </args>
      <args> p[0][13] 13 </args>
      <args> p[0][14] 14 </args>
      <args> p[0][15] 15 </args>
    </group>
    <group>
      <element>
        <list> v[1][] </list>
        <index> %0 </index>
        <value> %1 </value>
      </element>
      <args> p[1][0] 0 </args>
      <args> p[1][1] 1 </args>
      <args> p[1][2] 2 </args>
      <args> p[1][3] 3 </args>
      <args> p[1][4] 4 </args>
      <args> p[1][5] 5 </args>
      <args> p[1][6] 6 </args>
      <args> p[1][7] 7 </args>
      <args> p[1][8] 8 </args>
      <args> p[1][9] 9 </args>
      <args> p[1][10] 10 </args>
      <args> p[1][11] 11 </args>
      <args> p[1][12] 12 </args>
      <args> p[1][13] 13 </args>
      <args> p[1][14] 14 </args>
      <args> p[1][15] 15 </args>
    </group>
    <group>
      <element>
        <list> v[2][] </list>
        <index> %0 </index>
        <value> %1 </value>
      </element>
      <args> p[2][0] 0 </args>
      <args> p[2][1] 1 </args>
      <args> p[2][2] 2 </args>
      <args> p[2][3] 3 </args>
      <args> p[2][4] 4 </args>
      <args> p[2][5] 5 </args>
      <args> p[2][6] 6 </args>
      <args> p[2][7] 7 </args>
      <args> p[2][8] 8 </args>
      <args> p[2][9] 9 </args>
      <args> p[2][10] 10 </args>
      <args> p[2][11] 11 </args>
      <args> p[2][12] 12 </args>
      <args> p[2][13] 13 </args>
      <args> p[2][14] 14 </args>
      <args> p[2][15] 15 </args>
    </group>
    <group>
      <element>
        <list> v[3][] </list>
        <index> %0 </index>
        <value> %1 </value>
      </element>
      <args> p[3][0] 0 </args>
      <args> p[3][1] 1 </args>
      <args> p[3][2] 2 </args>
      <args> p[3][3] 3 </args>
      <args> p[3][4] 4 </args>
      <args> p[3][5] 5 </args>
      <args> p[3][6] 6 </args>
      <args> p[3][7] 7 </args>
      <args> p[3][8] 8 </args>
      <args> p[3][9] 9 </args>
      <args> p[3][10] 10 </args>
      <args> p[3][11] 11 </args>
      <args> p[3][12] 12 </args>
      <args> p[3][13] 13 </args>
      <args> p[3][14] 14 </args>
      <args> p[3][15] 15 </args>
    </group>
    <group>
      <element>
        <list> v[4][] </list>
        <index> %0 </index>
        <value> %1 </value>
      </element>
      <args> p[4][0] 0 </args>
      <args> p[4][1] 1 </args>
      <args> p[4][2] 2 </args>
      <args> p[4][3] 3 </args>
      <args> p[4][4] 4 </args>
      <args> p[4][5] 5 </args>
      <args> p[4][6] 6 </args>
      <args> p[4][7] 7 </args>
      <args> p[4][8] 8 </args>
      <args> p[4][9] 9 </args>
      <args> p[4][10] 10 </args>
      <args> p[4][11] 11 </args>
      <args> p[4][12] 12 </args>
      <args> p[4][13] 13 </args>
      <args> p[4][14] 14 </args>
      <args> p[4][15] 15 </args>
    </group>
    <group>
      <element>
        <list> v[5][] </list>
        <index> %0 </index>
        <value> %1 </value>
      </element>
      <args> p[5][0] 0 </args>
      <args> p[5][1] 1 </args>
      <args> p[5][2] 2 </args>
      <args> p[5][3] 3 </args>
      <args> p[5][4] 4 </args>
      <args> p[5][5] 5 </args>
      <args> p[5][6] 6 </args>
      <args> p[5][7] 7 </args>
      <args> p[5][8] 8 </args>
      <args> p[5][9] 9 </args>
      <args> p[5][10] 10 </args>
      <args> p[5][11] 11 </args>
      <args> p[5][12] 12 </args>
      <args> p[5][13] 13 </args>
      <args> p[5][14] 14 </args>
      <args> p[5][15] 15 </args>
    </group>
    <group>
      <element>
        <list> v[6][] </list>
        <index> %0 </index>
        <value> %1 </value>
      </element>
      <args> p[6][0] 0 </args>
      <args> p[6][1] 1 </args>
      <args> p[6][2] 2 </args>
      <args> p[6][3] 3 </args>
      <args> p[6][4] 4 </args>
      <args> p[6][5] 5 </args>
      <args> p[6][6] 6 </args>
      <args> p[6][7] 7 </args>
      <args> p[6][8] 8 </args>
      <args> p[6][9] 9 </args>
      <args> p[6][10] 10 </args>
      <args> p[6][11] 11 </args>
      <args> p[6][12] 12 </args>
      <args> p[6][13] 13 </args>
      <args> p[6][14] 14 </args>
      <args> p[6][15] 15 </args>
    </group>
    <group>
      <element>
        <list> v[7][] </list>
        <index> %0 </index>
        <value> %1 </value>
      </element>
      <args> p[7][0] 0 </args>
      <args> p[7][1] 1 </args>
      <args> p[7][2] 2 </args>
      <args> p[7][3] 3 </args>
      <args> p[7][4] 4 </args>
      <args> p[7][5] 5 </args>
      <args> p[7][6] 6 </args>
      <args> p[7][7] 7 </args>
      <args> p[7][8] 8 </args>
      <args> p[7][9] 9 </args>
      <args> p[7][10] 10 </args>
      <args> p[7][11] 11 </args>
      <args> p[7][12] 12 </args>
      <args> p[7][13] 13 </args>
      <args> p[7][14] 14 </args>
      <args> p[7][15] 15 </args>
    </group>
    <group>
      <element>
        <list> v[8][] </list>
        <index> %0 </index>
        <value> %1 </value>
      </element>
      <args> p[8][0] 0 </args>
      <args> p[8][1] 1 </args>
      <args> p[8][2] 2 </args>
      <args> p[8][3] 3 </args>
      <args> p[8][4] 4 </args>
      <args> p[8][5] 5 </args>
      <args> p[8][6] 6 </args>
      <args> p[8][7] 7 </args>
      <args> p[8][8] 8 </args>
      <args> p[8][9] 9 </args>
      <args> p[8][10] 10 </args>
      <args> p[8][11] 11 </args>
      <args> p[8][12] 12 </args>
      <args> p[8][13] 13 </args>
      <args> p[8][14] 14 </args>
      <args> p[8][15] 15 </args>
    </group>
    <group>
      <element>
        <list> v[9][] </list>
        <index> %0 </index>
        <value> %1 </value>
      </element>
      <args> p[9][0] 0 </args>
      <args> p[9][1] 1 </args>
      <args> p[9][2] 2 </args>
      <args> p[9][3] 3 </args>
      <args> p[9][4] 4 </args>
      <args> p[9][5] 5 </args>
      <args> p[9][6] 6 </args>
      <args> p[9][7] 7 </args>
      <args> p[9][8] 8 </args>
      <args> p[9][9] 9 </args>
      <args> p[9][10] 10 </args>
      <args> p[9][11] 11 </args>
      <args> p[9][12] 12 </args>
      <args> p[9][13] 13 </args>
      <args> p[9][14] 14 </args>
      <args> p[9][15] 15 </args>
    </group>
    <group>
      <element>
        <list> v[10][] </list>
        <index> %0 </index>
        <value> %1 </value>
      </element>
      <args> p[10][0] 0 </args>
      <args> p[10][1] 1 </args>
      <args> p[10][2] 2 </args>
      <args> p[10][3] 3 </args>
      <args> p[10][4] 4 </args>
      <args> p[10][5] 5 </args>
      <args> p[10][6] 6 </args>
      <args> p[10][7] 7 </args>
      <args> p[10][8] 8 </args>
      <args> p[10][9] 9 </args>
      <args> p[10][10] 10 </args>
      <args> p[10][11] 11 </args>
      <args> p[10][12] 12 </args>
      <args> p[10][13] 13 </args>
      <args> p[10][14] 14 </args>
      <args> p[10][15] 15 </args>
    </group>
    <group>
      <element>
        <list> v[11][] </list>
        <index> %0 </index>
        <value> %1 </value>
      </element>
      <args> p[11][0] 0 </args>
      <args> p[11][1] 1 </args>
      <args> p[11][2] 2 </args>
      <args> p[11][3] 3 </args>
      <args> p[11][4] 4 </args>
      <args> p[11][5] 5 </args>
      <args> p[11][6] 6 </args>
      <args> p[11][7] 7 </args>
      <args> p[11][8] 8 </args>
      <args> p[11][9] 9 </args>
      <args> p[11][10] 10 </args>
      <args> p[11][11] 11 </args>
      <args> p[11][12] 12 </args>
      <args> p[11][13] 13 </args>
      <args> p[11][14] 14 </args>
      <args> p[11][15] 15 </args>
    </group>
    <group>
      <element>
        <list> v[12][] </list>
        <index> %0 </index>
        <value> %1 </value>
      </element>
      <args> p[12][0] 0 </args>
      <args> p[12][1] 1 </args>
      <args> p[12][2] 2 </args>
      <args> p[12][3] 3 </args>
      <args> p[12][4] 4 </args>
      <args> p[12][5] 5 </args>
      <args> p[12][6] 6 </args>
      <args> p[12][7] 7 </args>
      <args> p[12][8] 8 </args>
      <args> p[12][9] 9 </args>
      <args> p[12][10] 10 </args>
      <args> p[12][11] 11 </args>
      <args> p[12][12] 12 </args>
      <args> p[12][13] 13 </args>
      <args> p[12][14] 14 </args>
      <args> p[12][15] 15 </args>
    </group>
    <group>
      <element>
        <list> v[13][] </list>
        <index> %0 </index>
        <value> %1 </value>
      </element>
      <args> p[13][0] 0 </args>
      <args> p[13][1] 1 </args>
      <args> p[13][2] 2 </args>
      <args> p[13][3] 3 </args>
      <args> p[13][4] 4 </args>
      <args> p[13][5] 5 </args>
      <args> p[13][6] 6 </args>
      <args> p[13][7] 7 </args>
      <args> p[13][8] 8 </args>
      <args> p[13][9] 9 </args>
      <args> p[13][10] 10 </args>
      <args> p[13][11] 11 </args>
      <args> p[13][12] 12 </args>
      <args> p[13][13] 13 </args>
      <args> p[13][14] 14 </args>
      <args> p[13][15] 15 </args>
    </group>
    <group>
      <element>
        <list> v[14][] </list>
        <index> %0 </index>
        <value> %1 </value>
      </element>
      <args> p[14][0] 0 </args>
      <args> p[14][1] 1 </args>
      <args> p[14][2] 2 </args>
      <args> p[14][3] 3 </args>
      <args> p[14][4] 4 </args>
      <args> p[14][5] 5 </args>
      <args> p[14][6] 6 </args>
      <args> p[14][7] 7 </args>
      <args> p[14][8] 8 </args>
      <args> p[14][9] 9 </args>
      <args> p[14][10] 10 </args>
      <args> p[14][11] 11 </args>
      <args> p[14][12] 12 </args>
      <args> p[14][13] 13 </args>
      <args> p[14][14] 14 </args>
      <args> p[14][15] 15 </args>
    </group>
    <group note="computing values">
      <extension>
        <list> %... </list>
        <supports> (0,0,0,0,0,0,0,0,0,0,0,0,0,0,0)(0,0,1,0,1,1,0,1,1,1,0,1,1,1,1)(0,1,0,1,0,2,1,0,2,2,1,0,2,2,2)(0,1,1,1,1,3,1,1,3,3,1,1,3,3,3)(1,0,0,2,2,0,2,2,0,4,2,2,0,4,4)(1,0,1,2,3,1,2,3,1,5,2,3,1,5,5)(1,1,0,3,2,2,3,2,2,6,3,2,2,6,6)(1,1,1,3,3,3,3,3,3,7,3,3,3,7,7)(2,2,2,0,0,0,4,4,4,0,4,4,4,0,8)(2,2,3,0,1,1,4,5,5,1,4,5,5,1,9)(2,3,2,1,0,2,5,4,6,2,5,4,6,2,10)(2,3,3,1,1,3,5,5,7,3,5,5,7,3,11)(3,2,2,2,2,0,6,6,4,4,6,6,4,4,12)(3,2,3,2,3,1,6,7,5,5,6,7,5,5,13)(3,3,2,3,2,2,7,6,6,6,7,6,6,6,14)(3,3,3,3,3,3,7,7,7,7,7,7,7,7,15)(4,4,4,4,4,4,0,0,0,0,8,8,8,8,0)(4,4,5,4,5,5,0,1,1,1,8,9,9,9,1)(4,5,4,5,4,6,1,0,2,2,9,8,10,10,2)(4,5,5,5,5,7,1,1,3,3,9,9,11,11,3)(5,4,4,6,6,4,2,2,0,4,10,10,8,12,4)(5,4,5,6,7,5,2,3,1,5,10,11,9,13,5)(5,5,4,7,6,6,3,2,2,6,11,10,10,14,6)(5,5,5,7,7,7,3,3,3,7,11,11,11,15,7)(6,6,6,4,4,4,4,4,4,0,12,12,12,8,8)(6,6,7,4,5,5,4,5,5,1,12,13,13,9,9)(6,7,6,5,4,6,5,4,6,2,13,12,14,10,10)(6,7,7,5,5,7,5,5,7,3,13,13,15,11,11)(7,6,6,6,6,4,6,6,4,4,14,14,12,12,12)(7,6,7,6,7,5,6,7,5,5,14,15,13,13,13)(7,7,6,7,6,6,7,6,6,6,15,14,14,14,14)(7,7,7,7,7,7,7,7,7,7,15,15,15,15,15)(8,8,8,8,8,8,8,8,8,8,0,0,0,0,0)(8,8,9,8,9,9,8,9,9,9,0,1,1,1,1)(8,9,8,9,8,10,9,8,10,10,1,0,2,2,2)(8,9,9,9,9,11,9,9,11,11,1,1,3,3,3)(9,8,8,10,10,8,10,10,8,12,2,2,0,4,4)(9,8,9,10,11,9,10,11,9,13,2,3,1,5,5)(9,9,8,11,10,10,11,10,10,14,3,2,2,6,6)(9,9,9,11,11,11,11,11,11,15,3,3,3,7,7)(10,10,10,8,8,8,12,12,12,8,4,4,4,0,8)(10,10,11,8,9,9,12,13,13,9,4,5,5,1,9)(10,11,10,9,8,10,13,12,14,10,5,4,6,2,10)(10,11,11,9,9,11,13,13,15,11,5,5,7,3,11)(11,10,10,10,10,8,14,14,12,12,6,6,4,4,12)(11,10,11,10,11,9,14,15,13,13,6,7,5,5,13)(11,11,10,11,10,10,15,14,14,14,7,6,6,6,14)(11,11,11,11,11,11,15,15,15,15,7,7,7,7,15)(12,12,12,12,12,12,8,8,8,8,8,8,8,8,0)(12,12,13,12,13,13,8,9,9,9,8,9,9,9,1)(12,13,12,13,12,14,9,8,10,10,9,8,10,10,2)(12,13,13,13,13,15,9,9,11,11,9,9,11,11,3)(13,12,12,14,14,12,10,10,8,12,10,10,8,12,4)(13,12,13,14,15,13,10,11,9,13,10,11,9,13,5)(13,13,12,15,14,14,11,10,10,14,11,10,10,14,6)(13,13,13,15,15,15,11,11,11,15,11,11,11,15,7)(14,14,14,12,12,12,12,12,12,8,12,12,12,8,8)(14,14,15,12,13,13,12,13,13,9,12,13,13,9,9)(14,15,14,13,12,14,13,12,14,10,13,12,14,10,10)(14,15,15,13,13,15,13,13,15,11,13,13,15,11,11)(15,14,14,14,14,12,14,14,12,12,14,14,12,12,12)(15,14,15,14,15,13,14,15,13,13,14,15,13,13,13)(15,15,14,15,14,14,15,14,14,14,15,14,14,14,14)(15,15,15,15,15,15,15,15,15,15,15,15,15,15,15) </supports>
      </extension>
      <args> v[][0] </args>
      <args> v[][1] </args>
      <args> v[][2] </args>
      <args> v[][3] </args>
      <args> v[][4] </args>
      <args> v[][5] </args>
      <args> v[][6] </args>
      <args> v[][7] </args>
      <args> v[][8] </args>
      <args> v[][9] </args>
      <args> v[][10] </args>
      <args> v[][11] </args>
      <args> v[][12] </args>
      <args> v[][13] </args>
      <args> v[][14] </args>
      <args> v[][15] </args>
      <args> v[][16] </args>
      <args> v[][17] </args>
      <args> v[][18] </args>
      <args> v[][19] </args>
      <args> v[][20] </args>
    </group>
  </constraints>
</instance>
